     30      2      6    121     10
     60     52
     25     10     24     11      2     18     20     22     21      8     23     24     17     21     29     27     14      1     28     22     13     12     15      5     28     24     25      5     12     13      1     17     23      7      7     11      0     25      1     22      5     29     21     18     28     12     20     21      4     19     27      5     12      0      9     22      8      3      7     27     23     17     25     12      2      3      0     25      3     27     13      2     19      1     20      7     22      3      4     23      8      2     10     27     20     21     22     26     15     23     29     25     22     13      6     14     25      5     21     22     21      9      8     12     25      6     27      9     10     24     20     11      7     15      6      6      9     12     15     29
    122     -5     71    -10    164    163    131    -17     18    -25     67     35     85     22     91    119     48     90     31    -18     41     89    -31     14     61     30     31     16    101     60
      2     10     12	    285    116      3      6      6      0      0     84      0      0      0      0      0     75      0      0      0      0      0      0      0      0    -29      0      0      0      0      0      0    -16      0     57      0      0      0
      5     14     12	    413    113      6      6     10      0      0      0      0      0      0    128      0      0      0      0      0      0      0      0     18    240      0      0      0      0      0    203      0      0      0      0      0      0     58
      1     10     10	    155     66      5      5      8     84      0      0      0      0      0      0      0      0      0      0      6      0     83      0      0     59      0      0     95      0      0     84      0      0      0      0      0     23      0
      1     11     13	    205     54      2      4      3      0      0      0      0     -5      0     80      0      0      0      0    161      0    105      0      0      0      0      0      0     34      0     21      0    -30      0      0      0      0      0
      5     10     14	    455    119      5      5      3      0      0      0     -5      0    240      0      0      0      0      0      0      0      0      0      0      0      0      0      0      0      0      0      0      0      0      0      0      0    107
      5     10     10	    437    215      6      6      7      0      0      0      0    240      0      0      0     40      1      0      0      0      0    -15      0      0      0      0      0      0      0      0      0      0      0      0      0      0     -5
      3     10     14	    270     99      5      5     10      0    128      0     80      0      0      0     77      0    -41      0      0      0      0    204      0      0      0    -14      0      0    107     14      0      0      0      0      0      0      0
      6     15     15	    335    230      6      6      7      0      0      0      0      0      0     77      0      0      0      0      0      0    -25    -20      0      0    110      0      0      0    -47      0      0      0      0      2      0      0    -57
      5     10     11	    349    199      5      6      1     75      0      0      0      0     40      0      0      0      0      0      0      0      0      0      0      9      8     94      0      0      0      0      0      0      0      0      0    105      0
      1     14     15	    291    195      1      5      8      0      0      0      0      0      1    -41      0      0      0      0      0      0    -49      0      0      0     50      0      0      0      0    -55      0      0      0      0      0      0      0
      5     11     12	    148     70      5      5      2      0      0      0      0      0      0      0      0      0      0      0      0     61     45     89      0     50      0      0      0      0      0     59      6      0      0      0      0     39      0
      3     14     11	    288    150      6      6      4      0      0      6    161      0      0      0      0      0      0      0      0     74      0      0      0    -22      0      0      0      0      0      0      0      0     38      0      0      0      0
      2     14     11	    221     85      3      4      2      0      0      0      0      0      0      0      0      0      0     61     74      0      0      0      0      0      0      0      0     -6      0      0    107      0      0    119      0      0      0
      2     12     13	    444    117      5      5     10      0      0     83    105      0      0      0    -25      0    -49     45      0      0      0      0      0    -13      0      7      0      0      0      0      0      0      0      0     45      0      0
      4     11     10	    444    160      4      5      1      0      0      0      0      0    -15    204    -20      0      0     89      0      0      0      0      0      0      0      0      0    244      0      0    101    300      0    -48      0      0      0
      5     10     12	    153    104      5      5      6      0     18      0      0      0      0      0      0      0      0      0      0      0      0      0      0      0      0      0      0      0     86      0    -12      0      0      0      0      0    -19
      3     15     10	    367     54      5      5      7      0    240     59      0      0      0      0      0      9      0     50    -22      0    -13      0      0      0    171      0      0      0      0      0      0    207      0      0      0      0      0
      2     12     15	    234     63      6      6      4    -29      0      0      0      0      0      0    110      8     50      0      0      0      0      0      0    171      0      0      0      0      0      0      0      0      0      0      0      0      0
      4     15     10	    168     55      5      5      3      0      0      0      0      0      0    -14      0     94      0      0      0      0      7      0      0      0      0      0    132      0      0      0      0      0      0      0      0     71    112
      4     14     10	    434    265      5      6      4      0      0     95      0      0      0      0      0      0      0      0      0      0      0      0      0      0      0    132      0     46      0      0     29      0      0      0      0      0      0
      5     11     15	    357    180      6      6      4      0      0      0     34      0      0      0      0      0      0      0      0     -6      0    244      0      0      0      0     46      0      0      0      0      0      0    187      0      0      0
      5     12     15	    471     98      6      6     10      0      0      0      0      0      0    107    -47      0      0      0      0      0      0      0     86      0      0      0      0      0      0      0      0      0      0      0      0    109      0
      5     12     13	    304    162      6      6      6      0    203     84     21      0      0     14      0      0    -55     59      0      0      0      0      0      0      0      0      0      0      0      0      0      0      0      0      8      0    214
      3     14     14	    137     73      3      5     10      0      0      0      0      0      0      0      0      0      0      6      0    107      0    101    -12      0      0      0     29      0      0      0      0      0    -18      0     55      0      0
      6     10     11	    399    197      6      6      2    -16      0      0    -30      0      0      0      0      0      0      0      0      0      0    300      0    207      0      0      0      0      0      0      0      0      0      0      0      0    166
      1     15     10	    156     67      4      5      8      0      0      0      0      0      0      0      0      0      0      0     38      0      0      0      0      0      0      0      0      0      0      0    -18      0      0    -18      0     94      0
      5     13     10	    262    176      6      6      5     57      0      0      0      0      0      0      2      0      0      0      0    119      0    -48      0      0      0      0      0    187      0      0      0      0    -18      0      0    188    186
      2     11     14	    253     65      4      5      3      0      0      0      0      0      0      0      0      0      0      0      0      0     45      0      0      0      0      0      0      0      0      8     55      0      0      0      0    -26      0
      6     13     11	    245     72      6      6      4      0      0     23      0      0      0      0      0    105      0     39      0      0      0      0      0      0      0     71      0      0    109      0      0      0     94    188    -26      0      0
      2     11     14	    425    105      3      4      1      0     58      0      0    107     -5      0    -57      0      0      0      0      0      0      0    -19      0      0    112      0      0      0    214      0    166      0    186      0      0      0